c 
c G(k,n,p) graph
c graph gen seed     : 987
c number of vertices : 20
c max number of edges: 400
c number of classes  : 2
c edge density       : 0.600000
c edge probability   : 1.200000
c data structure     : dense
c
c           Graph Stats
c number of vertices  : 20
c nonisolated vertices: 20
c number of edges     : 99
c edge density        : 0.521053
c max degree          : 11
c avg degree          : 9.90
c min degree          : 9
p col 20 99
e 1 2
e 1 4
e 1 9
e 1 11
e 1 12
e 1 13
e 1 15
e 1 18
e 1 19
e 2 3
e 2 5
e 2 6
e 2 7
e 2 8
e 2 10
e 2 14
e 2 16
e 2 17
e 2 20
e 3 4
e 3 9
e 3 11
e 3 12
e 3 13
e 3 15
e 3 18
e 3 19
e 4 5
e 4 6
e 4 7
e 4 8
e 4 10
e 4 14
e 4 16
e 4 17
e 4 20
e 5 9
e 5 11
e 5 12
e 5 13
e 5 15
e 5 18
e 5 19
e 6 9
e 6 11
e 6 12
e 6 13
e 6 15
e 6 18
e 6 19
e 7 9
e 7 11
e 7 12
e 7 13
e 7 15
e 7 18
e 7 19
e 8 9
e 8 11
e 8 12
e 8 13
e 8 15
e 8 18
e 8 19
e 9 10
e 9 14
e 9 16
e 9 17
e 9 20
e 10 11
e 10 12
e 10 13
e 10 15
e 10 18
e 10 19
e 11 14
e 11 16
e 11 17
e 11 20
e 12 14
e 12 16
e 12 17
e 12 20
e 13 14
e 13 16
e 13 17
e 13 20
e 14 15
e 14 18
e 14 19
e 15 16
e 15 17
e 15 20
e 16 18
e 16 19
e 17 18
e 17 19
e 18 20
e 19 20
